(set-logic AUFLIA)
(declare-sort U 0)
(declare-fun x () U)
(declare-fun y () U)
(declare-fun z () U)
(declare-fun a (U) Bool)
(declare-fun c (U) Bool)
(declare-fun lt (U U) Bool)
(assert (exists ((x U) (y U)) (forall ((z U)) (and (lt x z) (lt z y) (a x) (a y) (c z)))))
(check-sat)
